
Gurobi 9.5.2 (mac64[arm]) logging started Fri Apr 28 19:38:08 2023

Set parameter LogFile to value "Java/output/iterative_model_2_machine/scenario_seed_0_nJob_50_machineCount_2/mip_increment_2/log.txt"
Gurobi Optimizer version 9.5.2 build v9.5.2rc0 (mac64[arm])
Thread count: 8 physical cores, 8 logical processors, using up to 8 threads
Optimize a model with 1578 rows, 13144 columns and 106121 nonzeros
Model fingerprint: 0xa3256da5
Variable types: 0 continuous, 13144 integer (13144 binary)
Coefficient statistics:
  Matrix range     [1e+00, 3e+02]
  Objective range  [6e+01, 7e+06]
  Bounds range     [1e+00, 1e+00]
  RHS range        [1e+00, 1e+00]
Presolve removed 128 rows and 1640 columns
Presolve time: 0.11s
Presolved: 1450 rows, 11504 columns, 93138 nonzeros
Variable types: 0 continuous, 11504 integer (11504 binary)

Root relaxation: objective 1.298243e+04, 2952 iterations, 0.18 seconds (0.43 work units)

    Nodes    |    Current Node    |     Objective Bounds      |     Work
 Expl Unexpl |  Obj  Depth IntInf | Incumbent    BestBd   Gap | It/Node Time

     0     0 12982.4300    0  177          - 12982.4300      -     -    0s
H    0     0                    4.791850e+07 12982.4300   100%     -    0s
H    0     0                    2.422643e+07 12982.4300   100%     -    0s
H    0     0                    2.338710e+07 12982.4300   100%     -    0s
H    0     0                    1.108066e+07 12982.4300   100%     -    0s
H    0     0                    6464000.0000 13192.6547   100%     -    0s
     0     0 13192.6547    0  263 6464000.00 13192.6547   100%     -    0s
H    0     0                    5798368.0000 13192.6547   100%     -    1s
     0     0 13207.5174    0  285 5798368.00 13207.5174   100%     -    1s
     0     0 13449.9513    0  279 5798368.00 13449.9513   100%     -    1s
H    0     0                    5798272.0000 13449.9513   100%     -    1s
H    0     0                    5283984.0000 13449.9513   100%     -    1s
     0     0 13478.8423    0  287 5283984.00 13478.8423   100%     -    1s
     0     0 13481.2951    0  290 5283984.00 13481.2951   100%     -    1s
     0     0 13481.3704    0  293 5283984.00 13481.3704   100%     -    1s
H    0     0                    850768.00000 13481.3704  98.4%     -    2s
     0     0 14049.6761    0  297 850768.000 14049.6761  98.3%     -    2s
     0     0 14106.6744    0  300 850768.000 14106.6744  98.3%     -    2s
     0     0 14117.1082    0  306 850768.000 14117.1082  98.3%     -    2s
     0     0 14117.4050    0  305 850768.000 14117.4050  98.3%     -    2s
     0     0 15196.9028    0  279 850768.000 15196.9028  98.2%     -    2s
H    0     0                    843792.00000 15196.9028  98.2%     -    2s
     0     0 15693.6210    0  282 843792.000 15693.6210  98.1%     -    3s
     0     0 15722.4881    0  298 843792.000 15722.4881  98.1%     -    3s
     0     0 15728.5272    0  291 843792.000 15728.5272  98.1%     -    3s
     0     0 15731.2543    0  294 843792.000 15731.2543  98.1%     -    3s
     0     0 15731.2953    0  300 843792.000 15731.2953  98.1%     -    3s
     0     0 16502.0257    0  318 843792.000 16502.0257  98.0%     -    3s
H    0     0                    749520.00000 16567.8923  97.8%     -    3s
     0     0 16567.8923    0  307 749520.000 16567.8923  97.8%     -    3s
     0     0 16582.1004    0  319 749520.000 16582.1004  97.8%     -    3s
     0     0 16582.1577    0  321 749520.000 16582.1577  97.8%     -    3s
     0     0 17213.0469    0  287 749520.000 17213.0469  97.7%     -    3s
H    0     0                    697264.00000 17213.0469  97.5%     -    3s
     0     0 17992.8034    0  275 697264.000 17992.8034  97.4%     -    3s
     0     0 18063.6256    0  295 697264.000 18063.6256  97.4%     -    3s
     0     0 18106.8409    0  303 697264.000 18106.8409  97.4%     -    3s
     0     0 18110.7013    0  312 697264.000 18110.7013  97.4%     -    3s
     0     0 18111.0218    0  315 697264.000 18111.0218  97.4%     -    3s
H    0     0                    162208.00000 18111.0218  88.8%     -    3s
     0     0 19885.7669    0  267 162208.000 19885.7669  87.7%     -    4s
     0     0 19885.7669    0  182 162208.000 19885.7669  87.7%     -    4s
     0     0 19885.7669    0  255 162208.000 19885.7669  87.7%     -    4s
     0     0 19885.7669    0  277 162208.000 19885.7669  87.7%     -    4s
     0     0 19885.7669    0  275 162208.000 19885.7669  87.7%     -    4s
     0     0 19885.7669    0  272 162208.000 19885.7669  87.7%     -    4s
     0     0 19905.0975    0  265 162208.000 19905.0975  87.7%     -    4s
     0     0 19908.2855    0  265 162208.000 19908.2855  87.7%     -    4s
     0     0 19908.2855    0  266 162208.000 19908.2855  87.7%     -    4s
     0     0 20721.8294    0  301 162208.000 20721.8294  87.2%     -    5s
H    0     0                    119344.00000 20721.8294  82.6%     -    5s
     0     0 20774.6100    0  297 119344.000 20774.6100  82.6%     -    5s
     0     0 20827.0167    0  297 119344.000 20827.0167  82.5%     -    5s
     0     0 20843.9203    0  295 119344.000 20843.9203  82.5%     -    5s
     0     0 20844.6030    0  292 119344.000 20844.6030  82.5%     -    5s
     0     0 22071.9631    0  272 119344.000 22071.9631  81.5%     -    5s
H    0     0                    118672.00000 22071.9631  81.4%     -    5s
H    0     0                    96528.000000 22071.9631  77.1%     -    5s
     0     0 22418.0034    0  286 96528.0000 22418.0034  76.8%     -    5s
     0     0 22484.1040    0  291 96528.0000 22484.1040  76.7%     -    5s
     0     0 22490.8636    0  304 96528.0000 22490.8636  76.7%     -    5s
     0     0 22491.8039    0  306 96528.0000 22491.8039  76.7%     -    5s
     0     0 22790.7880    0  330 96528.0000 22790.7880  76.4%     -    5s
H    0     0                    96496.000000 22790.7880  76.4%     -    5s
     0     0 22856.5077    0  317 96496.0000 22856.5077  76.3%     -    5s
     0     0 22866.8400    0  327 96496.0000 22866.8400  76.3%     -    5s
     0     0 22868.9203    0  331 96496.0000 22868.9203  76.3%     -    5s
     0     0 22955.0816    0  334 96496.0000 22955.0816  76.2%     -    5s
     0     0 23003.9203    0  332 96496.0000 23003.9203  76.2%     -    5s
     0     0 23023.8493    0  343 96496.0000 23023.8493  76.1%     -    5s
     0     0 23025.9954    0  333 96496.0000 23025.9954  76.1%     -    5s
     0     0 23066.1078    0  343 96496.0000 23066.1078  76.1%     -    5s
     0     0 23078.8726    0  345 96496.0000 23078.8726  76.1%     -    5s
     0     0 23081.1257    0  342 96496.0000 23081.1257  76.1%     -    5s
     0     0 23126.8772    0  350 96496.0000 23126.8772  76.0%     -    5s
     0     0 23126.8772    0  350 96496.0000 23126.8772  76.0%     -    5s
     0     2 23146.0112    0  349 96496.0000 23146.0112  76.0%     -    5s
H   35    40                    94512.000000 23966.6817  74.6%   725    6s
H   68    76                    56592.000000 23966.6817  57.7%   645    7s
H  110   119                    56496.000000 23966.6817  57.6%   574    7s
H  110   119                    49136.000000 23966.6817  51.2%   574    7s
H  114   119                    43072.000000 23966.6817  44.4%   558    7s
H  155   152                    32384.000000 23966.6817  26.0%   498    8s
H  158   152                    31968.000000 23966.6817  25.0%   498    8s
   701   257 29510.7693   11  243 31968.0000 25720.7920  19.5%   349   10s
H 1170   315                    31952.000000 26906.2531  15.8%   328   11s
  2272   210     cutoff   10      31952.0000 29087.1444  8.97%   314   15s

Cutting planes:
  Gomory: 3
  Cover: 33
  Clique: 80
  MIR: 141
  StrongCG: 65
  GUB cover: 86
  Inf proof: 1
  Zero half: 20
  RLT: 5

Explored 2813 nodes (856813 simplex iterations) in 15.99 seconds (36.87 work units)
Thread count was 8 (of 8 available processors)

Solution count 10: 31952 31968 32384 ... 96528

Optimal solution found (tolerance 1.00e-04)
Best objective 3.195200000000e+04, best bound 3.195200000000e+04, gap 0.0000%

Gurobi 9.5.2 (mac64[arm]) logging started Fri Apr 28 19:38:24 2023

Set parameter LogFile to value "Java/output/iterative_model_2_machine/scenario_seed_0_nJob_50_machineCount_2/mip_increment_2/log.txt"
Gurobi Optimizer version 9.5.2 build v9.5.2rc0 (mac64[arm])
Thread count: 8 physical cores, 8 logical processors, using up to 8 threads
Optimize a model with 1564 rows, 8532 columns and 62852 nonzeros
Model fingerprint: 0x592da3e8
Variable types: 0 continuous, 8532 integer (8532 binary)
Coefficient statistics:
  Matrix range     [1e+00, 3e+02]
  Objective range  [3e+02, 1e+06]
  Bounds range     [1e+00, 1e+00]
  RHS range        [1e+00, 1e+00]
Found heuristic solution: objective 2230660.0000
Presolve removed 409 rows and 655 columns
Presolve time: 0.07s
Presolved: 1155 rows, 7877 columns, 57661 nonzeros
Variable types: 0 continuous, 7877 integer (7875 binary)
Found heuristic solution: objective 1659784.0000

Root relaxation: objective 6.597577e+03, 2101 iterations, 0.07 seconds (0.15 work units)

    Nodes    |    Current Node    |     Objective Bounds      |     Work
 Expl Unexpl |  Obj  Depth IntInf | Incumbent    BestBd   Gap | It/Node Time

     0     0 6597.57743    0  117 1659784.00 6597.57743   100%     -    0s
H    0     0                    818084.00000 6597.57743  99.2%     -    0s
H    0     0                    645188.00000 6597.57743  99.0%     -    0s
H    0     0                    98664.000000 6597.57743  93.3%     -    0s
H    0     0                    95328.000000 6665.96217  93.0%     -    0s
     0     0 6665.96217    0  170 95328.0000 6665.96217  93.0%     -    0s
H    0     0                    74464.000000 6665.96217  91.0%     -    0s
H    0     0                    27896.000000 6725.08755  75.9%     -    0s
H    0     0                    26336.000000 6725.08755  74.5%     -    0s
     0     0 6725.08755    0  176 26336.0000 6725.08755  74.5%     -    0s
     0     0 6726.13469    0  164 26336.0000 6726.13469  74.5%     -    0s
     0     0 6726.14707    0  162 26336.0000 6726.14707  74.5%     -    0s
     0     0 6927.20614    0  176 26336.0000 6927.20614  73.7%     -    0s
H    0     0                    24784.000000 6927.20614  72.0%     -    0s
     0     0 6927.20614    0  116 24784.0000 6927.20614  72.0%     -    0s
H    0     0                    24448.000000 6927.20614  71.7%     -    0s
     0     0 6927.20614    0  182 24448.0000 6927.20614  71.7%     -    0s
H    0     0                    24388.000000 6927.20614  71.6%     -    0s
     0     0 6946.07240    0  177 24388.0000 6946.07240  71.5%     -    0s
     0     0 6947.88276    0  182 24388.0000 6947.88276  71.5%     -    0s
     0     0 6947.89457    0  190 24388.0000 6947.89457  71.5%     -    0s
     0     0 7145.75618    0  184 24388.0000 7145.75618  70.7%     -    0s
H    0     0                    24380.000000 7145.75618  70.7%     -    0s
H    0     0                    24372.000000 7145.75618  70.7%     -    0s
     0     0 7393.52260    0  187 24372.0000 7393.52260  69.7%     -    0s
     0     0 7396.79939    0  201 24372.0000 7396.79939  69.7%     -    0s
     0     0 7397.29256    0  207 24372.0000 7397.29256  69.6%     -    0s
     0     0 7397.36078    0  202 24372.0000 7397.36078  69.6%     -    0s
     0     0 8601.98811    0  194 24372.0000 8601.98811  64.7%     -    1s
     0     0 8986.95574    0  199 24372.0000 8986.95574  63.1%     -    1s
H    0     0                    21136.000000 8986.95574  57.5%     -    1s
     0     0 9053.39979    0  203 21136.0000 9053.39979  57.2%     -    1s
     0     0 9053.96934    0  207 21136.0000 9053.96934  57.2%     -    1s
     0     0 9422.97396    0  188 21136.0000 9422.97396  55.4%     -    1s
H    0     0                    21120.000000 9422.97396  55.4%     -    1s
     0     0 9530.85933    0  223 21120.0000 9530.85933  54.9%     -    1s
     0     0 9553.77276    0  240 21120.0000 9553.77276  54.8%     -    1s
     0     0 9556.37886    0  248 21120.0000 9556.37886  54.8%     -    1s
     0     0 9557.09465    0  247 21120.0000 9557.09465  54.7%     -    1s
     0     0 9622.44464    0  246 21120.0000 9622.44464  54.4%     -    1s
H    0     0                    12480.000000 9622.44464  22.9%     -    1s
     0     0 9627.93458    0  244 12480.0000 9627.93458  22.9%     -    1s
     0     0 9629.40536    0  247 12480.0000 9629.40536  22.8%     -    1s
     0     0 9700.35902    0  224 12480.0000 9700.35902  22.3%     -    1s
     0     0 9708.90627    0  230 12480.0000 9708.90627  22.2%     -    1s
     0     0 9710.25609    0  226 12480.0000 9710.25609  22.2%     -    1s
     0     0 9772.45051    0  229 12480.0000 9772.45051  21.7%     -    1s
     0     0 9791.82736    0  239 12480.0000 9791.82736  21.5%     -    1s
     0     0 9804.48503    0  243 12480.0000 9804.48503  21.4%     -    1s
     0     0 9804.95395    0  248 12480.0000 9804.95395  21.4%     -    1s
     0     0 9812.35955    0  240 12480.0000 9812.35955  21.4%     -    1s
     0     0 9813.68353    0  246 12480.0000 9813.68353  21.4%     -    1s
     0     0 9826.14168    0  251 12480.0000 9826.14168  21.3%     -    1s
     0     0 9826.14168    0  232 12480.0000 9826.14168  21.3%     -    1s
H    0     0                    10916.000000 9826.14168  10.0%     -    1s
H    0     0                    10532.000000 9830.83520  6.66%     -    1s
     0     0 9830.83520    0  129 10532.0000 9830.83520  6.66%     -    1s
     0     0 9830.83520    0  186 10532.0000 9830.83520  6.66%     -    1s
     0     0 9830.83520    0  174 10532.0000 9830.83520  6.66%     -    1s
     0     0 9836.03986    0  193 10532.0000 9836.03986  6.61%     -    1s
     0     0 9859.09677    0  169 10532.0000 9859.09677  6.39%     -    1s
     0     0 9879.78182    0  173 10532.0000 9879.78182  6.19%     -    1s
     0     0 9883.11782    0  177 10532.0000 9883.11782  6.16%     -    1s
     0     0 9894.95518    0  200 10532.0000 9894.95518  6.05%     -    1s
     0     0 9895.21063    0  209 10532.0000 9895.21063  6.05%     -    1s
     0     0 9903.42289    0  176 10532.0000 9903.42289  5.97%     -    1s
     0     0 9904.42244    0  188 10532.0000 9904.42244  5.96%     -    1s
     0     0 9913.17712    0  188 10532.0000 9913.17712  5.88%     -    1s
     0     0 9913.17712    0  164 10532.0000 9913.17712  5.88%     -    1s
H    0     0                    10524.000000 9913.17712  5.80%     -    1s
     0     2 9921.39939    0  163 10524.0000 9921.39939  5.73%     -    1s
H   33     5                    10472.000000 10408.0000  0.61%  69.7    2s

Cutting planes:
  Cover: 1
  Clique: 39
  MIR: 35
  StrongCG: 7
  GUB cover: 34
  Zero half: 7
  RLT: 1

Explored 40 nodes (21239 simplex iterations) in 2.04 seconds (2.89 work units)
Thread count was 8 (of 8 available processors)

Solution count 10: 10472 10524 10532 ... 24388

Optimal solution found (tolerance 1.00e-04)
Best objective 1.047200000000e+04, best bound 1.047200000000e+04, gap 0.0000%

Gurobi 9.5.2 (mac64[arm]) logging started Fri Apr 28 19:38:27 2023

Set parameter LogFile to value "Java/output/iterative_model_2_machine/scenario_seed_0_nJob_50_machineCount_2/mip_increment_2/log.txt"
Gurobi Optimizer version 9.5.2 build v9.5.2rc0 (mac64[arm])
Thread count: 8 physical cores, 8 logical processors, using up to 8 threads
Optimize a model with 1572 rows, 6918 columns and 51369 nonzeros
Model fingerprint: 0xd9034776
Variable types: 0 continuous, 6918 integer (6918 binary)
Coefficient statistics:
  Matrix range     [1e+00, 3e+02]
  Objective range  [1e+02, 2e+05]
  Bounds range     [1e+00, 1e+00]
  RHS range        [1e+00, 1e+00]
Found heuristic solution: objective 764692.00000
Presolve removed 713 rows and 820 columns
Presolve time: 0.06s
Presolved: 859 rows, 6098 columns, 45296 nonzeros
Variable types: 0 continuous, 6098 integer (6098 binary)
Found heuristic solution: objective 725732.00000

Root relaxation: objective 3.449522e+03, 1976 iterations, 0.06 seconds (0.10 work units)

    Nodes    |    Current Node    |     Objective Bounds      |     Work
 Expl Unexpl |  Obj  Depth IntInf | Incumbent    BestBd   Gap | It/Node Time

     0     0 3449.52180    0   86 725732.000 3449.52180   100%     -    0s
H    0     0                    458338.00000 3449.52180  99.2%     -    0s
H    0     0                    300163.00000 3449.52180  98.9%     -    0s
H    0     0                    156987.00000 3449.52180  97.8%     -    0s
H    0     0                    129790.00000 3449.52180  97.3%     -    0s
H    0     0                    126940.00000 3722.48709  97.1%     -    0s
     0     0 3722.48709    0  153 126940.000 3722.48709  97.1%     -    0s
H    0     0                    76033.000000 3722.48709  95.1%     -    0s
H    0     0                    56833.000000 3722.48709  93.5%     -    0s
     0     0 3831.59260    0  168 56833.0000 3831.59260  93.3%     -    0s
H    0     0                    54425.000000 3831.59260  93.0%     -    0s
H    0     0                    54422.000000 3831.59260  93.0%     -    0s
H    0     0                    54408.000000 3831.59260  93.0%     -    0s
     0     0 3842.32163    0  160 54408.0000 3842.32163  92.9%     -    0s
     0     0 3842.32163    0  157 54408.0000 3842.32163  92.9%     -    0s
H    0     0                    22233.000000 3970.45272  82.1%     -    0s
     0     0 3970.45272    0  210 22233.0000 3970.45272  82.1%     -    0s
H    0     0                    20538.000000 3970.45272  80.7%     -    0s
     0     0 3975.39874    0  207 20538.0000 3975.39874  80.6%     -    0s
     0     0 3975.81944    0  204 20538.0000 3975.81944  80.6%     -    0s
     0     0 3976.20076    0  205 20538.0000 3976.20076  80.6%     -    0s
     0     0 3976.24980    0  203 20538.0000 3976.24980  80.6%     -    0s
H    0     0                    17667.000000 3976.24980  77.5%     -    0s
     0     0 4038.11143    0  210 17667.0000 4038.11143  77.1%     -    0s
     0     0 4038.11143    0   95 17667.0000 4038.11143  77.1%     -    1s
H    0     0                    17637.000000 4038.11143  77.1%     -    1s
H    0     0                    15990.000000 4038.11143  74.7%     -    1s
     0     0 4038.11143    0  177 15990.0000 4038.11143  74.7%     -    1s
     0     0 4038.11143    0  188 15990.0000 4038.11143  74.7%     -    1s
H    0     0                    15988.000000 4038.11143  74.7%     -    1s
     0     0 4040.82984    0  205 15988.0000 4040.82984  74.7%     -    1s
     0     0 4041.82120    0  203 15988.0000 4041.82120  74.7%     -    1s
H    0     0                    15982.000000 4041.82120  74.7%     -    1s
     0     0 4109.53181    0  230 15982.0000 4109.53181  74.3%     -    1s
H    0     0                    15977.000000 4109.53181  74.3%     -    1s
     0     0 4109.78235    0  223 15977.0000 4109.78235  74.3%     -    1s
     0     0 4182.95535    0  238 15977.0000 4182.95535  73.8%     -    1s
H    0     0                    15976.000000 4182.95535  73.8%     -    1s
H    0     0                    15970.000000 4182.95535  73.8%     -    1s
     0     0 4197.21040    0  221 15970.0000 4197.21040  73.7%     -    1s
     0     0 4206.23578    0   69 15970.0000 4206.23578  73.7%     -    1s
     0     0 4207.18718    0   52 15970.0000 4207.18718  73.7%     -    1s
     0     0 4207.18718    0   53 15970.0000 4207.18718  73.7%     -    1s
     0     0 4208.96496    0  237 15970.0000 4208.96496  73.6%     -    1s
     0     0 4209.64619    0   71 15970.0000 4209.64619  73.6%     -    1s
     0     0 4209.69231    0   45 15970.0000 4209.69231  73.6%     -    1s
     0     0 4210.53217    0   83 15970.0000 4210.53217  73.6%     -    1s
     0     0 4210.87336    0   83 15970.0000 4210.87336  73.6%     -    1s
     0     0 4210.87336    0   79 15970.0000 4210.87336  73.6%     -    1s
H    0     0                    4220.0000000 4210.87336  0.22%     -    1s
     0     0 4211.33226    0   24 4220.00000 4211.33226  0.21%     -    1s
     0     0 4211.33226    0   57 4220.00000 4211.33226  0.21%     -    1s
     0     0 4211.33333    0   51 4220.00000 4211.33333  0.21%     -    1s
     0     0 4211.33333    0   52 4220.00000 4211.33333  0.21%     -    1s
H    0     0                    4218.0000000 4211.33333  0.16%     -    1s
H    0     0                    4212.0000000 4211.33333  0.02%     -    1s
     0     0          -    0      4212.00000 4212.00000  0.00%     -    1s

Cutting planes:
  Gomory: 22
  Clique: 8
  MIR: 4
  StrongCG: 1
  GUB cover: 10
  Zero half: 11

Explored 1 nodes (14549 simplex iterations) in 1.81 seconds (2.50 work units)
Thread count was 8 (of 8 available processors)

Solution count 10: 4212 4218 4220 ... 15990

Optimal solution found (tolerance 1.00e-04)
Best objective 4.212000000000e+03, best bound 4.212000000000e+03, gap 0.0000%

Gurobi 9.5.2 (mac64[arm]) logging started Fri Apr 28 19:38:29 2023

Set parameter LogFile to value "Java/output/iterative_model_2_machine/scenario_seed_0_nJob_50_machineCount_2/mip_increment_2/log.txt"
Gurobi Optimizer version 9.5.2 build v9.5.2rc0 (mac64[arm])
Thread count: 8 physical cores, 8 logical processors, using up to 8 threads
Optimize a model with 3226 rows, 74400 columns and 930411 nonzeros
Model fingerprint: 0x76bfd9ef
Variable types: 0 continuous, 74400 integer (74400 binary)
Coefficient statistics:
  Matrix range     [1e+00, 3e+02]
  Objective range  [1e+00, 7e+06]
  Bounds range     [1e+00, 1e+00]
  RHS range        [1e+00, 1e+00]

Warning: Completing partial solution with 74250 unfixed non-continuous variables out of 74400
User MIP start produced solution with objective 35930 (0.06s)
Loaded user MIP start with objective 35930

Presolve removed 91 rows and 7691 columns
Presolve time: 1.22s
Presolved: 3135 rows, 66709 columns, 833379 nonzeros
Variable types: 0 continuous, 66709 integer (66709 binary)

Root simplex log...

Iteration    Objective       Primal Inf.    Dual Inf.      Time
   20467    1.9230065e+04   2.703870e+04   0.000000e+00      5s
   39307    1.9924211e+04   2.385822e+05   0.000000e+00     10s
   53501    2.0208683e+04   2.993471e+03   0.000000e+00     15s
   54681    2.0210793e+04   0.000000e+00   0.000000e+00     16s

Root relaxation: objective 2.021079e+04, 54681 iterations, 14.28 seconds (37.64 work units)

    Nodes    |    Current Node    |     Objective Bounds      |     Work
 Expl Unexpl |  Obj  Depth IntInf | Incumbent    BestBd   Gap | It/Node Time

     0     0 20210.7927    0  662 35930.0000 20210.7927  43.7%     -   15s
H    0     0                    35751.000000 20210.7927  43.5%     -   16s
H    0     0                    35487.000000 20297.9814  42.8%     -   23s
     0     0 20297.9814    0  798 35487.0000 20297.9814  42.8%     -   23s
     0     0 20330.3060    0  862 35487.0000 20330.3060  42.7%     -   29s
     0     0 20338.5071    0  879 35487.0000 20338.5071  42.7%     -   31s
     0     0 20338.7399    0  899 35487.0000 20338.7399  42.7%     -   31s
     0     0 20338.7450    0  909 35487.0000 20338.7450  42.7%     -   31s
H    0     0                    35448.000000 20338.7450  42.6%     -   32s
     0     0 20455.1683    0  908 35448.0000 20455.1683  42.3%     -   40s
     0     0 20455.1683    0  705 35448.0000 20455.1683  42.3%     -   51s
H    0     0                    35442.000000 20455.1683  42.3%     -   52s
H    0     0                    35441.000000 20455.1683  42.3%     -   52s
     0     0 20516.2730    0  829 35441.0000 20516.2730  42.1%     -   59s
     0     0 20602.0553    0  867 35441.0000 20602.0553  41.9%     -   63s
     0     0 20614.2498    0  853 35441.0000 20614.2498  41.8%     -   65s
     0     0 20614.7247    0  864 35441.0000 20614.7247  41.8%     -   66s
     0     0 20614.8198    0  859 35441.0000 20614.8198  41.8%     -   66s
     0     0 20614.8198    0  857 35441.0000 20614.8198  41.8%     -   66s
     0     0 20730.3597    0  960 35441.0000 20730.3597  41.5%     -   72s
H    0     0                    35421.000000 20730.3597  41.5%     -   73s
     0     0 20794.4141    0 1026 35421.0000 20794.4141  41.3%     -   80s
     0     0 20813.8538    0 1058 35421.0000 20813.8538  41.2%     -   83s
     0     0 20818.4229    0 1049 35421.0000 20818.4229  41.2%     -   85s
     0     0 20818.5723    0 1063 35421.0000 20818.5723  41.2%     -   86s
     0     0 20818.5969    0 1070 35421.0000 20818.5969  41.2%     -   86s
     0     0 21012.4794    0 1163 35421.0000 21012.4794  40.7%     -  102s
     0     0 21179.5021    0 1100 35421.0000 21179.5021  40.2%     -  112s
     0     0 21195.3887    0 1162 35421.0000 21195.3887  40.2%     -  117s
     0     0 21197.0991    0 1143 35421.0000 21197.0991  40.2%     -  119s
     0     0 21197.1895    0 1117 35421.0000 21197.1895  40.2%     -  120s
     0     0 21382.1567    0 1141 35421.0000 21382.1567  39.6%     -  134s
     0     0 21510.1050    0 1217 35421.0000 21510.1050  39.3%     -  148s
     0     0 21529.9440    0 1236 35421.0000 21529.9440  39.2%     -  156s
     0     0 21531.3250    0 1222 35421.0000 21531.3250  39.2%     -  158s
     0     0 21531.4543    0 1224 35421.0000 21531.4543  39.2%     -  158s
     0     0 21968.2176    0 1214 35421.0000 21968.2176  38.0%     -  172s
     0     0 22075.0442    0 1205 35421.0000 22075.0442  37.7%     -  183s
     0     0 22102.4441    0 1227 35421.0000 22102.4441  37.6%     -  189s
H    0     0                    35268.000000 22102.4441  37.3%     -  194s
     0     0 22111.0922    0 1283 35268.0000 22111.0922  37.3%     -  194s
     0     0 22112.2445    0 1279 35268.0000 22112.2445  37.3%     -  196s
     0     0 22112.2986    0 1278 35268.0000 22112.2986  37.3%     -  196s
     0     0 22386.7533    0 1213 35268.0000 22386.7533  36.5%     -  215s
H    0     0                    35267.000000 22386.7533  36.5%     -  215s
H    0     0                    35266.000000 22386.7533  36.5%     -  215s
     0     0 22489.4264    0 1228 35266.0000 22489.4264  36.2%     -  226s
H    0     0                    35255.000000 22489.4264  36.2%     -  232s
     0     0 22499.4341    0 1237 35255.0000 22499.4341  36.2%     -  232s
     0     0 22500.9462    0 1249 35255.0000 22500.9462  36.2%     -  234s
H    0     0                    35254.000000 22500.9462  36.2%     -  235s
     0     0 22501.3549    0 1245 35254.0000 22501.3549  36.2%     -  235s
     0     0 22661.9579    0 1247 35254.0000 22661.9579  35.7%     -  252s
H    0     0                    35250.000000 22661.9579  35.7%     -  254s
     0     0 22769.1379    0 1243 35250.0000 22769.1379  35.4%     -  264s
     0     0 22800.4853    0 1301 35250.0000 22800.4853  35.3%     -  278s
     0     0 22811.3357    0 1322 35250.0000 22811.3357  35.3%     -  285s
     0     0 22812.1346    0 1304 35250.0000 22812.1346  35.3%     -  286s
     0     0 22896.3222    0 1307 35250.0000 22896.3222  35.0%     -  299s
     0     0 22926.2104    0 1311 35250.0000 22926.2104  35.0%     -  308s
     0     0 22936.1361    0 1313 35250.0000 22936.1361  34.9%     -  313s
     0     0 22937.9085    0 1324 35250.0000 22937.9085  34.9%     -  315s
     0     0 22938.5821    0 1320 35250.0000 22938.5821  34.9%     -  317s
     0     0 22973.9445    0 1331 35250.0000 22973.9445  34.8%     -  326s
H    0     0                    34996.000000 22973.9445  34.4%     -  329s
     0     0 23006.4454    0 1401 34996.0000 23006.4454  34.3%     -  344s
     0     0 23012.1302    0 1400 34996.0000 23012.1302  34.2%     -  348s
     0     0 23014.7895    0 1401 34996.0000 23014.7895  34.2%     -  352s
     0     0 23017.9329    0 1414 34996.0000 23017.9329  34.2%     -  358s
     0     0 23018.2422    0 1411 34996.0000 23018.2422  34.2%     -  359s
     0     0 23049.6592    0 1437 34996.0000 23049.6592  34.1%     -  368s
H    0     0                    34993.000000 23049.6592  34.1%     -  368s
     0     0 23066.7417    0 1463 34993.0000 23066.7417  34.1%     -  376s
     0     0 23069.8876    0 1474 34993.0000 23069.8876  34.1%     -  380s
     0     0 23070.8585    0 1447 34993.0000 23070.8585  34.1%     -  381s
     0     0 23101.7775    0 1347 34993.0000 23101.7775  34.0%     -  390s
H    0     0                    34968.000000 23101.7775  33.9%     -  406s
     0     0 23110.5475    0 1438 34968.0000 23110.5475  33.9%     -  415s
     0     0 23117.8835    0 1426 34968.0000 23117.8835  33.9%     -  421s
     0     0 23123.0418    0 1418 34968.0000 23123.0418  33.9%     -  425s
     0     0 23124.4679    0 1427 34968.0000 23124.4679  33.9%     -  427s
     0     0 23165.4774    0 1402 34968.0000 23165.4774  33.8%     -  438s
H    0     0                    34963.000000 23165.4774  33.7%     -  438s
H    0     0                    34943.000000 23165.4774  33.7%     -  438s
     0     0 23170.8566    0 1487 34943.0000 23170.8566  33.7%     -  442s
     0     0 23173.4141    0 1471 34943.0000 23173.4141  33.7%     -  447s
     0     0 23174.4871    0 1495 34943.0000 23174.4871  33.7%     -  451s
     0     0 23189.0133    0 1481 34943.0000 23189.0133  33.6%     -  459s
     0     0 23192.2842    0 1483 34943.0000 23192.2842  33.6%     -  480s
     0     0 23193.8660    0 1470 34943.0000 23193.8660  33.6%     -  483s
     0     0 23227.8640    0 1411 34943.0000 23227.8640  33.5%     -  491s
     0     0 23236.2388    0 1434 34943.0000 23236.2388  33.5%     -  498s
     0     0 23239.7608    0 1462 34943.0000 23239.7608  33.5%     -  502s
     0     0 23240.1449    0 1476 34943.0000 23240.1449  33.5%     -  503s
     0     0 23268.9483    0 1454 34943.0000 23268.9483  33.4%     -  518s
H    0     0                    34720.000000 23268.9483  33.0%     -  525s
     0     0 23273.9339    0 1474 34720.0000 23273.9339  33.0%     -  530s
     0     0 23274.7843    0 1478 34720.0000 23274.7843  33.0%     -  532s
     0     0 23280.3694    0 1474 34720.0000 23280.3694  32.9%     -  536s
     0     0 23280.3694    0 1433 34720.0000 23280.3694  32.9%     -  538s
H    0     0                    34719.000000 23280.3694  32.9%     -  555s
H    0     0                    34718.000000 23280.3694  32.9%     -  558s
H    0     2                    34694.000000 23280.4822  32.9%     -  563s
     0     2 23280.4822    0 1419 34694.0000 23280.4822  32.9%     -  563s
     1     3 23287.1564    1 1409 34694.0000 23280.4822  32.9%  7118  579s

Cutting planes:
  Cover: 2
  Clique: 221
  MIR: 314
  StrongCG: 175
  GUB cover: 226
  RLT: 1

Explored 2 nodes (1030541 simplex iterations) in 579.02 seconds (1503.67 work units)
Thread count was 8 (of 8 available processors)

Solution count 10: 34694 34718 34719 ... 35250

Time limit reached
Best objective 3.469400000000e+04, best bound 2.328100000000e+04, gap 32.8962%
